c Standarized MaxSat Instance
c{
c "sha1sum": "fb2c75a533eb20f94a81af9f7d11689eb78f815b",
c "nvars": 60,
c "ncls": 1200,
c "nhards": 0,
c "nhard_len_stats":
c    { "min": 0, "max": 0, "ave": 0.00,
c      "stddev": 0.00 },
c "nsofts": 1200,
c "nsoft_len_stats":
c    { "min": 2, "max": 2, "ave": 2.00,
c      "stddev": 0.00 },
c "nsoft_wts": 10,
c "soft_wt_stats":
c    { "min": 1, "max": 10, "ave": 5.69,
c      "stddev": 2.81 }
c}
c------------------------------------------------------------
c Generated after 1 tries
c Graph with 60 nodes and 600 edges, Max edges:1770
p wcnf 60 1200 6827
9 1 3 0
9 -1 -3 0
4 1 7 0
4 -1 -7 0
8 1 8 0
8 -1 -8 0
8 1 11 0
8 -1 -11 0
10 1 13 0
10 -1 -13 0
2 1 19 0
2 -1 -19 0
4 1 22 0
4 -1 -22 0
8 1 24 0
8 -1 -24 0
3 1 26 0
3 -1 -26 0
6 1 27 0
6 -1 -27 0
5 1 30 0
5 -1 -30 0
7 1 31 0
7 -1 -31 0
4 1 37 0
4 -1 -37 0
6 1 39 0
6 -1 -39 0
10 1 41 0
10 -1 -41 0
10 1 50 0
10 -1 -50 0
7 1 51 0
7 -1 -51 0
8 1 52 0
8 -1 -52 0
2 1 54 0
2 -1 -54 0
7 1 55 0
7 -1 -55 0
1 1 57 0
1 -1 -57 0
3 2 6 0
3 -2 -6 0
2 2 12 0
2 -2 -12 0
9 2 17 0
9 -2 -17 0
2 2 19 0
2 -2 -19 0
5 2 24 0
5 -2 -24 0
2 2 25 0
2 -2 -25 0
2 2 31 0
2 -2 -31 0
10 2 33 0
10 -2 -33 0
3 2 34 0
3 -2 -34 0
6 2 35 0
6 -2 -35 0
9 2 38 0
9 -2 -38 0
7 2 47 0
7 -2 -47 0
3 2 50 0
3 -2 -50 0
7 2 52 0
7 -2 -52 0
6 2 56 0
6 -2 -56 0
5 2 57 0
5 -2 -57 0
10 2 58 0
10 -2 -58 0
3 2 60 0
3 -2 -60 0
8 3 4 0
8 -3 -4 0
6 3 6 0
6 -3 -6 0
8 3 9 0
8 -3 -9 0
5 3 12 0
5 -3 -12 0
9 3 13 0
9 -3 -13 0
3 3 14 0
3 -3 -14 0
4 3 15 0
4 -3 -15 0
9 3 18 0
9 -3 -18 0
10 3 20 0
10 -3 -20 0
1 3 21 0
1 -3 -21 0
10 3 24 0
10 -3 -24 0
6 3 26 0
6 -3 -26 0
1 3 30 0
1 -3 -30 0
2 3 32 0
2 -3 -32 0
7 3 35 0
7 -3 -35 0
9 3 36 0
9 -3 -36 0
4 3 37 0
4 -3 -37 0
1 3 39 0
1 -3 -39 0
1 3 40 0
1 -3 -40 0
5 3 44 0
5 -3 -44 0
1 3 55 0
1 -3 -55 0
3 3 59 0
3 -3 -59 0
10 4 11 0
10 -4 -11 0
10 4 12 0
10 -4 -12 0
9 4 13 0
9 -4 -13 0
3 4 19 0
3 -4 -19 0
6 4 21 0
6 -4 -21 0
4 4 24 0
4 -4 -24 0
8 4 26 0
8 -4 -26 0
6 4 28 0
6 -4 -28 0
7 4 29 0
7 -4 -29 0
6 4 32 0
6 -4 -32 0
1 4 36 0
1 -4 -36 0
5 4 40 0
5 -4 -40 0
10 4 42 0
10 -4 -42 0
10 4 43 0
10 -4 -43 0
8 4 45 0
8 -4 -45 0
3 4 48 0
3 -4 -48 0
8 4 50 0
8 -4 -50 0
7 4 51 0
7 -4 -51 0
4 4 52 0
4 -4 -52 0
7 4 53 0
7 -4 -53 0
2 4 55 0
2 -4 -55 0
5 4 60 0
5 -4 -60 0
9 5 6 0
9 -5 -6 0
9 5 7 0
9 -5 -7 0
4 5 9 0
4 -5 -9 0
3 5 11 0
3 -5 -11 0
9 5 15 0
9 -5 -15 0
4 5 18 0
4 -5 -18 0
7 5 20 0
7 -5 -20 0
10 5 21 0
10 -5 -21 0
6 5 26 0
6 -5 -26 0
7 5 31 0
7 -5 -31 0
9 5 33 0
9 -5 -33 0
5 5 34 0
5 -5 -34 0
10 5 37 0
10 -5 -37 0
4 5 41 0
4 -5 -41 0
9 5 44 0
9 -5 -44 0
7 5 45 0
7 -5 -45 0
10 5 52 0
10 -5 -52 0
5 5 56 0
5 -5 -56 0
3 6 7 0
3 -6 -7 0
10 6 9 0
10 -6 -9 0
10 6 12 0
10 -6 -12 0
2 6 14 0
2 -6 -14 0
9 6 15 0
9 -6 -15 0
7 6 18 0
7 -6 -18 0
5 6 19 0
5 -6 -19 0
7 6 21 0
7 -6 -21 0
3 6 33 0
3 -6 -33 0
8 6 36 0
8 -6 -36 0
4 6 39 0
4 -6 -39 0
5 6 40 0
5 -6 -40 0
3 6 43 0
3 -6 -43 0
2 6 44 0
2 -6 -44 0
3 6 47 0
3 -6 -47 0
6 6 48 0
6 -6 -48 0
5 6 49 0
5 -6 -49 0
2 6 51 0
2 -6 -51 0
10 6 52 0
10 -6 -52 0
2 6 53 0
2 -6 -53 0
2 6 54 0
2 -6 -54 0
5 6 59 0
5 -6 -59 0
8 7 8 0
8 -7 -8 0
10 7 11 0
10 -7 -11 0
10 7 18 0
10 -7 -18 0
7 7 19 0
7 -7 -19 0
4 7 28 0
4 -7 -28 0
8 7 31 0
8 -7 -31 0
4 7 32 0
4 -7 -32 0
3 7 35 0
3 -7 -35 0
3 7 43 0
3 -7 -43 0
6 7 45 0
6 -7 -45 0
3 7 48 0
3 -7 -48 0
2 7 50 0
2 -7 -50 0
8 7 53 0
8 -7 -53 0
2 7 55 0
2 -7 -55 0
8 7 59 0
8 -7 -59 0
2 7 60 0
2 -7 -60 0
8 8 9 0
8 -8 -9 0
1 8 10 0
1 -8 -10 0
10 8 17 0
10 -8 -17 0
1 8 21 0
1 -8 -21 0
6 8 22 0
6 -8 -22 0
2 8 23 0
2 -8 -23 0
3 8 27 0
3 -8 -27 0
8 8 28 0
8 -8 -28 0
8 8 29 0
8 -8 -29 0
7 8 30 0
7 -8 -30 0
10 8 39 0
10 -8 -39 0
7 8 40 0
7 -8 -40 0
8 8 41 0
8 -8 -41 0
1 8 42 0
1 -8 -42 0
2 8 44 0
2 -8 -44 0
6 8 48 0
6 -8 -48 0
1 8 53 0
1 -8 -53 0
1 8 55 0
1 -8 -55 0
3 9 14 0
3 -9 -14 0
5 9 15 0
5 -9 -15 0
9 9 19 0
9 -9 -19 0
6 9 23 0
6 -9 -23 0
8 9 24 0
8 -9 -24 0
1 9 27 0
1 -9 -27 0
2 9 29 0
2 -9 -29 0
10 9 31 0
10 -9 -31 0
3 9 34 0
3 -9 -34 0
9 9 36 0
9 -9 -36 0
2 9 39 0
2 -9 -39 0
10 9 40 0
10 -9 -40 0
1 9 43 0
1 -9 -43 0
9 9 45 0
9 -9 -45 0
1 9 47 0
1 -9 -47 0
1 9 51 0
1 -9 -51 0
10 9 54 0
10 -9 -54 0
6 9 55 0
6 -9 -55 0
2 9 57 0
2 -9 -57 0
2 10 11 0
2 -10 -11 0
4 10 12 0
4 -10 -12 0
10 10 19 0
10 -10 -19 0
9 10 22 0
9 -10 -22 0
4 10 29 0
4 -10 -29 0
6 10 32 0
6 -10 -32 0
6 10 37 0
6 -10 -37 0
5 10 38 0
5 -10 -38 0
7 10 39 0
7 -10 -39 0
1 10 41 0
1 -10 -41 0
6 10 44 0
6 -10 -44 0
8 10 46 0
8 -10 -46 0
4 10 48 0
4 -10 -48 0
10 10 54 0
10 -10 -54 0
6 10 55 0
6 -10 -55 0
9 10 57 0
9 -10 -57 0
8 10 58 0
8 -10 -58 0
7 10 59 0
7 -10 -59 0
1 10 60 0
1 -10 -60 0
8 11 13 0
8 -11 -13 0
9 11 17 0
9 -11 -17 0
10 11 18 0
10 -11 -18 0
9 11 20 0
9 -11 -20 0
9 11 21 0
9 -11 -21 0
10 11 23 0
10 -11 -23 0
8 11 24 0
8 -11 -24 0
10 11 26 0
10 -11 -26 0
10 11 27 0
10 -11 -27 0
7 11 33 0
7 -11 -33 0
5 11 36 0
5 -11 -36 0
2 11 47 0
2 -11 -47 0
9 11 49 0
9 -11 -49 0
9 11 51 0
9 -11 -51 0
1 11 58 0
1 -11 -58 0
7 12 13 0
7 -12 -13 0
3 12 14 0
3 -12 -14 0
7 12 16 0
7 -12 -16 0
3 12 18 0
3 -12 -18 0
8 12 24 0
8 -12 -24 0
4 12 27 0
4 -12 -27 0
4 12 28 0
4 -12 -28 0
3 12 31 0
3 -12 -31 0
1 12 34 0
1 -12 -34 0
7 12 41 0
7 -12 -41 0
3 12 49 0
3 -12 -49 0
7 12 50 0
7 -12 -50 0
6 12 52 0
6 -12 -52 0
10 12 55 0
10 -12 -55 0
3 12 56 0
3 -12 -56 0
6 12 57 0
6 -12 -57 0
8 13 15 0
8 -13 -15 0
2 13 19 0
2 -13 -19 0
5 13 21 0
5 -13 -21 0
6 13 23 0
6 -13 -23 0
10 13 25 0
10 -13 -25 0
5 13 28 0
5 -13 -28 0
4 13 29 0
4 -13 -29 0
9 13 34 0
9 -13 -34 0
5 13 40 0
5 -13 -40 0
1 13 46 0
1 -13 -46 0
4 13 48 0
4 -13 -48 0
6 13 49 0
6 -13 -49 0
9 13 50 0
9 -13 -50 0
3 13 52 0
3 -13 -52 0
7 13 56 0
7 -13 -56 0
5 13 60 0
5 -13 -60 0
5 14 16 0
5 -14 -16 0
4 14 22 0
4 -14 -22 0
8 14 23 0
8 -14 -23 0
2 14 25 0
2 -14 -25 0
7 14 26 0
7 -14 -26 0
1 14 27 0
1 -14 -27 0
5 14 28 0
5 -14 -28 0
7 14 29 0
7 -14 -29 0
7 14 36 0
7 -14 -36 0
7 14 38 0
7 -14 -38 0
4 14 43 0
4 -14 -43 0
2 14 45 0
2 -14 -45 0
7 14 49 0
7 -14 -49 0
7 14 54 0
7 -14 -54 0
8 14 57 0
8 -14 -57 0
4 14 59 0
4 -14 -59 0
8 15 23 0
8 -15 -23 0
3 15 25 0
3 -15 -25 0
10 15 28 0
10 -15 -28 0
7 15 29 0
7 -15 -29 0
7 15 34 0
7 -15 -34 0
3 15 36 0
3 -15 -36 0
6 15 37 0
6 -15 -37 0
1 15 39 0
1 -15 -39 0
3 15 41 0
3 -15 -41 0
9 15 42 0
9 -15 -42 0
7 15 43 0
7 -15 -43 0
1 15 44 0
1 -15 -44 0
2 15 46 0
2 -15 -46 0
4 15 47 0
4 -15 -47 0
6 15 49 0
6 -15 -49 0
6 15 54 0
6 -15 -54 0
7 15 58 0
7 -15 -58 0
3 16 17 0
3 -16 -17 0
8 16 18 0
8 -16 -18 0
3 16 19 0
3 -16 -19 0
4 16 20 0
4 -16 -20 0
2 16 21 0
2 -16 -21 0
10 16 22 0
10 -16 -22 0
1 16 24 0
1 -16 -24 0
9 16 26 0
9 -16 -26 0
4 16 27 0
4 -16 -27 0
2 16 29 0
2 -16 -29 0
5 16 30 0
5 -16 -30 0
10 16 32 0
10 -16 -32 0
10 16 36 0
10 -16 -36 0
8 16 44 0
8 -16 -44 0
7 16 45 0
7 -16 -45 0
2 16 53 0
2 -16 -53 0
7 16 54 0
7 -16 -54 0
4 16 55 0
4 -16 -55 0
8 16 58 0
8 -16 -58 0
10 16 59 0
10 -16 -59 0
10 17 19 0
10 -17 -19 0
9 17 20 0
9 -17 -20 0
3 17 22 0
3 -17 -22 0
8 17 27 0
8 -17 -27 0
6 17 36 0
6 -17 -36 0
3 17 39 0
3 -17 -39 0
10 17 40 0
10 -17 -40 0
10 17 55 0
10 -17 -55 0
9 17 56 0
9 -17 -56 0
5 17 58 0
5 -17 -58 0
6 17 60 0
6 -17 -60 0
2 18 28 0
2 -18 -28 0
3 18 29 0
3 -18 -29 0
9 18 32 0
9 -18 -32 0
5 18 34 0
5 -18 -34 0
5 18 39 0
5 -18 -39 0
9 18 44 0
9 -18 -44 0
5 18 48 0
5 -18 -48 0
3 18 52 0
3 -18 -52 0
2 18 54 0
2 -18 -54 0
7 18 57 0
7 -18 -57 0
8 18 59 0
8 -18 -59 0
2 19 21 0
2 -19 -21 0
7 19 23 0
7 -19 -23 0
5 19 25 0
5 -19 -25 0
9 19 27 0
9 -19 -27 0
8 19 28 0
8 -19 -28 0
2 19 34 0
2 -19 -34 0
3 19 38 0
3 -19 -38 0
5 19 41 0
5 -19 -41 0
2 19 43 0
2 -19 -43 0
2 19 48 0
2 -19 -48 0
4 19 58 0
4 -19 -58 0
4 20 24 0
4 -20 -24 0
10 20 28 0
10 -20 -28 0
10 20 29 0
10 -20 -29 0
7 20 31 0
7 -20 -31 0
9 20 35 0
9 -20 -35 0
9 20 37 0
9 -20 -37 0
5 20 48 0
5 -20 -48 0
4 20 49 0
4 -20 -49 0
4 20 51 0
4 -20 -51 0
7 20 55 0
7 -20 -55 0
7 20 58 0
7 -20 -58 0
3 20 59 0
3 -20 -59 0
2 21 22 0
2 -21 -22 0
1 21 28 0
1 -21 -28 0
2 21 30 0
2 -21 -30 0
7 21 31 0
7 -21 -31 0
4 21 33 0
4 -21 -33 0
3 21 37 0
3 -21 -37 0
4 21 41 0
4 -21 -41 0
1 21 44 0
1 -21 -44 0
5 21 47 0
5 -21 -47 0
10 21 48 0
10 -21 -48 0
6 21 55 0
6 -21 -55 0
3 22 27 0
3 -22 -27 0
7 22 31 0
7 -22 -31 0
8 22 32 0
8 -22 -32 0
5 22 40 0
5 -22 -40 0
2 22 48 0
2 -22 -48 0
9 22 49 0
9 -22 -49 0
7 22 57 0
7 -22 -57 0
6 22 58 0
6 -22 -58 0
3 22 60 0
3 -22 -60 0
6 23 29 0
6 -23 -29 0
5 23 33 0
5 -23 -33 0
9 23 34 0
9 -23 -34 0
4 23 36 0
4 -23 -36 0
3 23 38 0
3 -23 -38 0
4 23 39 0
4 -23 -39 0
8 23 40 0
8 -23 -40 0
7 23 43 0
7 -23 -43 0
10 23 49 0
10 -23 -49 0
4 23 50 0
4 -23 -50 0
9 23 53 0
9 -23 -53 0
2 23 54 0
2 -23 -54 0
5 23 55 0
5 -23 -55 0
1 23 56 0
1 -23 -56 0
8 23 57 0
8 -23 -57 0
8 23 60 0
8 -23 -60 0
3 24 27 0
3 -24 -27 0
2 24 28 0
2 -24 -28 0
9 24 29 0
9 -24 -29 0
8 24 31 0
8 -24 -31 0
1 24 32 0
1 -24 -32 0
5 24 36 0
5 -24 -36 0
10 24 42 0
10 -24 -42 0
8 24 43 0
8 -24 -43 0
3 24 44 0
3 -24 -44 0
5 24 45 0
5 -24 -45 0
9 24 51 0
9 -24 -51 0
1 24 54 0
1 -24 -54 0
1 24 59 0
1 -24 -59 0
4 25 31 0
4 -25 -31 0
4 25 35 0
4 -25 -35 0
7 25 39 0
7 -25 -39 0
9 25 40 0
9 -25 -40 0
2 25 41 0
2 -25 -41 0
1 25 42 0
1 -25 -42 0
1 25 43 0
1 -25 -43 0
5 25 44 0
5 -25 -44 0
8 25 46 0
8 -25 -46 0
7 25 47 0
7 -25 -47 0
5 25 49 0
5 -25 -49 0
2 25 51 0
2 -25 -51 0
6 25 57 0
6 -25 -57 0
6 25 58 0
6 -25 -58 0
6 26 27 0
6 -26 -27 0
6 26 32 0
6 -26 -32 0
4 26 34 0
4 -26 -34 0
4 26 39 0
4 -26 -39 0
9 26 41 0
9 -26 -41 0
5 26 42 0
5 -26 -42 0
2 26 46 0
2 -26 -46 0
7 26 53 0
7 -26 -53 0
6 26 55 0
6 -26 -55 0
7 26 57 0
7 -26 -57 0
6 26 60 0
6 -26 -60 0
3 27 31 0
3 -27 -31 0
9 27 36 0
9 -27 -36 0
1 27 37 0
1 -27 -37 0
1 27 39 0
1 -27 -39 0
10 27 42 0
10 -27 -42 0
2 27 44 0
2 -27 -44 0
5 27 48 0
5 -27 -48 0
3 27 49 0
3 -27 -49 0
9 27 50 0
9 -27 -50 0
3 27 55 0
3 -27 -55 0
4 27 56 0
4 -27 -56 0
9 27 57 0
9 -27 -57 0
4 27 58 0
4 -27 -58 0
9 27 59 0
9 -27 -59 0
7 27 60 0
7 -27 -60 0
1 28 30 0
1 -28 -30 0
3 28 34 0
3 -28 -34 0
8 28 37 0
8 -28 -37 0
7 28 39 0
7 -28 -39 0
9 28 42 0
9 -28 -42 0
4 28 45 0
4 -28 -45 0
3 28 47 0
3 -28 -47 0
2 28 51 0
2 -28 -51 0
7 28 54 0
7 -28 -54 0
2 28 57 0
2 -28 -57 0
7 29 34 0
7 -29 -34 0
8 29 37 0
8 -29 -37 0
8 29 39 0
8 -29 -39 0
3 29 54 0
3 -29 -54 0
5 30 47 0
5 -30 -47 0
4 30 53 0
4 -30 -53 0
5 30 55 0
5 -30 -55 0
3 30 59 0
3 -30 -59 0
4 31 34 0
4 -31 -34 0
6 31 35 0
6 -31 -35 0
2 31 38 0
2 -31 -38 0
6 31 40 0
6 -31 -40 0
1 31 47 0
1 -31 -47 0
4 31 53 0
4 -31 -53 0
4 31 54 0
4 -31 -54 0
4 31 55 0
4 -31 -55 0
8 31 60 0
8 -31 -60 0
3 32 33 0
3 -32 -33 0
7 32 35 0
7 -32 -35 0
6 32 36 0
6 -32 -36 0
10 32 37 0
10 -32 -37 0
7 32 40 0
7 -32 -40 0
9 32 44 0
9 -32 -44 0
7 32 45 0
7 -32 -45 0
4 32 48 0
4 -32 -48 0
7 32 49 0
7 -32 -49 0
1 32 51 0
1 -32 -51 0
6 32 52 0
6 -32 -52 0
9 32 55 0
9 -32 -55 0
7 32 57 0
7 -32 -57 0
7 33 38 0
7 -33 -38 0
6 33 39 0
6 -33 -39 0
5 33 42 0
5 -33 -42 0
4 33 45 0
4 -33 -45 0
8 33 46 0
8 -33 -46 0
9 33 52 0
9 -33 -52 0
7 33 54 0
7 -33 -54 0
2 33 55 0
2 -33 -55 0
1 33 56 0
1 -33 -56 0
1 34 35 0
1 -34 -35 0
7 34 37 0
7 -34 -37 0
2 34 38 0
2 -34 -38 0
7 34 41 0
7 -34 -41 0
8 34 44 0
8 -34 -44 0
6 34 47 0
6 -34 -47 0
1 34 59 0
1 -34 -59 0
1 35 36 0
1 -35 -36 0
4 35 38 0
4 -35 -38 0
3 35 39 0
3 -35 -39 0
7 35 40 0
7 -35 -40 0
9 35 42 0
9 -35 -42 0
2 35 43 0
2 -35 -43 0
4 35 44 0
4 -35 -44 0
7 35 45 0
7 -35 -45 0
9 35 46 0
9 -35 -46 0
7 35 52 0
7 -35 -52 0
4 35 53 0
4 -35 -53 0
9 35 55 0
9 -35 -55 0
2 35 56 0
2 -35 -56 0
2 36 41 0
2 -36 -41 0
6 36 43 0
6 -36 -43 0
9 36 44 0
9 -36 -44 0
7 36 49 0
7 -36 -49 0
10 36 52 0
10 -36 -52 0
2 36 54 0
2 -36 -54 0
4 36 56 0
4 -36 -56 0
8 36 57 0
8 -36 -57 0
9 36 58 0
9 -36 -58 0
6 36 59 0
6 -36 -59 0
8 37 39 0
8 -37 -39 0
10 37 45 0
10 -37 -45 0
3 37 46 0
3 -37 -46 0
10 37 47 0
10 -37 -47 0
6 37 50 0
6 -37 -50 0
10 37 52 0
10 -37 -52 0
5 37 53 0
5 -37 -53 0
6 37 55 0
6 -37 -55 0
10 37 57 0
10 -37 -57 0
8 37 58 0
8 -37 -58 0
9 38 44 0
9 -38 -44 0
6 38 46 0
6 -38 -46 0
7 38 47 0
7 -38 -47 0
10 38 48 0
10 -38 -48 0
10 38 51 0
10 -38 -51 0
4 38 55 0
4 -38 -55 0
9 38 57 0
9 -38 -57 0
6 38 59 0
6 -38 -59 0
7 39 41 0
7 -39 -41 0
8 39 42 0
8 -39 -42 0
8 39 44 0
8 -39 -44 0
8 39 45 0
8 -39 -45 0
3 39 46 0
3 -39 -46 0
7 39 48 0
7 -39 -48 0
5 39 51 0
5 -39 -51 0
2 39 54 0
2 -39 -54 0
8 40 42 0
8 -40 -42 0
9 40 43 0
9 -40 -43 0
9 40 45 0
9 -40 -45 0
7 40 50 0
7 -40 -50 0
5 40 53 0
5 -40 -53 0
7 41 42 0
7 -41 -42 0
6 41 48 0
6 -41 -48 0
7 41 50 0
7 -41 -50 0
6 41 51 0
6 -41 -51 0
2 41 54 0
2 -41 -54 0
6 41 55 0
6 -41 -55 0
1 41 57 0
1 -41 -57 0
8 42 46 0
8 -42 -46 0
6 42 54 0
6 -42 -54 0
9 42 58 0
9 -42 -58 0
6 42 59 0
6 -42 -59 0
2 42 60 0
2 -42 -60 0
5 43 47 0
5 -43 -47 0
6 43 49 0
6 -43 -49 0
1 43 58 0
1 -43 -58 0
9 43 60 0
9 -43 -60 0
4 44 45 0
4 -44 -45 0
7 44 48 0
7 -44 -48 0
5 44 51 0
5 -44 -51 0
2 44 52 0
2 -44 -52 0
5 44 54 0
5 -44 -54 0
3 44 55 0
3 -44 -55 0
5 44 58 0
5 -44 -58 0
1 45 52 0
1 -45 -52 0
8 45 56 0
8 -45 -56 0
6 46 48 0
6 -46 -48 0
9 46 51 0
9 -46 -51 0
6 46 52 0
6 -46 -52 0
5 47 48 0
5 -47 -48 0
5 47 52 0
5 -47 -52 0
10 47 53 0
10 -47 -53 0
1 47 54 0
1 -47 -54 0
1 47 57 0
1 -47 -57 0
7 47 60 0
7 -47 -60 0
6 48 54 0
6 -48 -54 0
3 48 55 0
3 -48 -55 0
3 48 56 0
3 -48 -56 0
7 48 59 0
7 -48 -59 0
10 48 60 0
10 -48 -60 0
8 49 50 0
8 -49 -50 0
5 49 52 0
5 -49 -52 0
5 49 58 0
5 -49 -58 0
9 50 51 0
9 -50 -51 0
10 50 53 0
10 -50 -53 0
10 50 54 0
10 -50 -54 0
9 50 56 0
9 -50 -56 0
8 51 53 0
8 -51 -53 0
4 51 57 0
4 -51 -57 0
6 51 58 0
6 -51 -58 0
3 51 59 0
3 -51 -59 0
5 52 56 0
5 -52 -56 0
10 53 54 0
10 -53 -54 0
5 53 57 0
5 -53 -57 0
9 53 58 0
9 -53 -58 0
10 54 55 0
10 -54 -55 0
2 54 59 0
2 -54 -59 0
5 55 57 0
5 -55 -57 0
8 55 58 0
8 -55 -58 0
8 55 59 0
8 -55 -59 0
10 57 59 0
10 -57 -59 0
3 59 60 0
3 -59 -60 0
